
Gurobi 11.0.3 (linux64) logging started Sat Nov 23 15:29:56 2024

Set parameter LogFile to value "/home/yihong/Coding/OR_SUC/SUC_results_bigM100000_thread4/case24_ieee_rts_theta0.5_epsilon0.025_gurobi_seed230000_num_gen100_N_WDR50_load_scaling_factor1_exact_T24quadra_cost.txt"
Set parameter TimeLimit to value 3600
Gurobi Optimizer version 11.0.3 build v11.0.3rc0 (linux64 - "Ubuntu 20.04.6 LTS")

CPU model: AMD EPYC 7532 32-Core Processor, instruction set [SSE2|AVX|AVX2]
Thread count: 64 physical cores, 128 logical processors, using up to 4 threads

Optimize a model with 50071 rows, 29861 columns and 508398 nonzeros
Model fingerprint: 0x39278060
Model has 2400 quadratic constraints
Variable types: 27411 continuous, 2450 integer (2450 binary)
Coefficient statistics:
  Matrix range     [3e-04, 1e+05]
  QMatrix range    [2e-03, 8e-03]
  QLMatrix range   [2e-01, 6e+01]
  Objective range  [1e+00, 1e+00]
  Bounds range     [1e+00, 1e+00]
  RHS range        [1e+00, 1e+05]
Presolve removed 40372 rows and 12958 columns
Presolve time: 0.22s
Presolved: 9699 rows, 16903 columns, 51266 nonzeros
Presolved model has 2400 quadratic constraint(s)
Variable types: 14480 continuous, 2423 integer (2423 binary)

Root relaxation: objective 6.448355e+04, 7918 iterations, 0.13 seconds (0.17 work units)

    Nodes    |    Current Node    |     Objective Bounds      |     Work
 Expl Unexpl |  Obj  Depth IntInf | Incumbent    BestBd   Gap | It/Node Time

     0     0 64483.5470    0   26          - 64483.5470      -     -    0s
     0     0 335441.012    0  698          - 335441.012      -     -    0s
     0     0 374687.528    0  756          - 374687.528      -     -    1s
     0     0 619754.870    0  820          - 619754.870      -     -    1s
     0     0 620342.742    0  517          - 620342.742      -     -    1s
     0     0 620762.199    0  293          - 620762.199      -     -    1s
     0     0 620767.505    0  292          - 620767.505      -     -    1s
     0     0 620778.165    0  293          - 620778.165      -     -    1s
     0     0 620784.240    0  293          - 620784.240      -     -    1s
     0     2 620784.240    0  293          - 620784.240      -     -    2s
   134   155 621356.413   31  262          - 620987.643      -   534    5s
   458   427 621273.856   52  512          - 621007.006      -   178   10s
   604   579 621452.901   29  355          - 621014.212      -   198   15s
H 1871   657                    621471.95022 621014.212  0.07%  93.4   18s
* 1871   657             193    621471.95022 621014.212  0.07%  93.5   18s

Cutting planes:
  Gomory: 4
  Implied bound: 84
  MIR: 59
  Flow cover: 118
  RLT: 1
  Relax-and-lift: 1

Explored 2050 nodes (203110 simplex iterations) in 19.53 seconds (23.24 work units)
Thread count was 4 (of 128 available processors)

Solution count 2: 621472 621472 

Optimal solution found (tolerance 1.00e-03)
Warning: max constraint violation (2.0499e-09) exceeds tolerance
Best objective 6.214719485937e+05, best bound 6.210142117919e+05, gap 0.0737%
